80 8
96 63
45 63
16 54
95 67
52 4
93 58
17 7
66 25
3 39
38 95
89 28
72 90
55 17
47 18
29 21
9 39
30 11
98 37
54 42
56 64
23 47
31 67
84 83
40 40
29 36
11 28
40 34
40 49
10 3
5 22
5 87
86 69
75 60
12 39
64 96
66 32
41 48
31 64
8 60
12 6
85 29
36 70
14 100
95 47
81 32
64 9
23 71
28 84
17 72
11 44
97 13
1 71
10 86
1 43
4 17
33 42
60 29
50 68
20 31
39 90
39 87
64 98
27 77
89 16
37 83
13 9
93 82
84 11
19 18
31 63
75 19
41 74
20 34
42 84
2 82
48 70
57 100
84 65
74 68
31 67
318 495
389 564
420 577
276 374
346 527
350 514
309 402
343 508
